<?xml version = "1.0" standalone="yes"?>
<!-- This file has been generated by DOcplex version 2.23.222  -->
<CPLEXSolution version="1.0">
 <header
   problemName="CVRP"
   objectiveValue="9991.06"
  />
 <variables>
  <variable name="x_0_2" index="1" value="1.00000"/>
  <variable name="x_0_3" index="2" value="1.00000"/>
  <variable name="x_0_4" index="3" value="1.00000"/>
  <variable name="x_0_6" index="5" value="1.00000"/>
  <variable name="x_0_10" index="9" value="1.00000"/>
  <variable name="x_0_16" index="15" value="1.00000"/>
  <variable name="x_0_18" index="17" value="1.00000"/>
  <variable name="x_0_19" index="18" value="1.00000"/>
  <variable name="x_0_20" index="19" value="1.00000"/>
  <variable name="x_0_21" index="20" value="1.00000"/>
  <variable name="x_0_23" index="22" value="1.00000"/>
  <variable name="x_1_14" index="37" value="1.00000"/>
  <variable name="x_2_0" index="48" value="1.00000"/>
  <variable name="x_3_1" index="73" value="1.00000"/>
  <variable name="x_4_8" index="103" value="1.00000"/>
  <variable name="x_5_0" index="120" value="1.00000"/>
  <variable name="x_6_13" index="156" value="1.00000"/>
  <variable name="x_7_5" index="173" value="1.00000"/>
  <variable name="x_8_7" index="199" value="1.00000"/>
  <variable name="x_9_0" index="216" value="1.00000"/>
  <variable name="x_10_0" index="240" value="1.00000"/>
  <variable name="x_11_9" index="273" value="1.00000"/>
  <variable name="x_12_0" index="288" value="1.00000"/>
  <variable name="x_13_11" index="323" value="1.00000"/>
  <variable name="x_14_0" index="336" value="1.00000"/>
  <variable name="x_15_12" index="372" value="1.00000"/>
  <variable name="x_16_24" index="407" value="1.00000"/>
  <variable name="x_17_0" index="408" value="1.00000"/>
  <variable name="x_18_0" index="432" value="1.00000"/>
  <variable name="x_19_0" index="456" value="1.00000"/>
  <variable name="x_20_0" index="480" value="1.00000"/>
  <variable name="x_21_22" index="525" value="1.00000"/>
  <variable name="x_22_0" index="528" value="1.00000"/>
  <variable name="x_23_15" index="567" value="1.00000"/>
  <variable name="x_24_17" index="593" value="1.00000"/>
  <variable name="u_1" index="600" value="29.00000"/>
  <variable name="u_2" index="601" value="36.00000"/>
  <variable name="u_3" index="602" value="19.00000"/>
  <variable name="u_4" index="603" value="17.00000"/>
  <variable name="u_5" index="604" value="36.00000"/>
  <variable name="u_6" index="605" value="3.00000"/>
  <variable name="u_7" index="606" value="32.00000"/>
  <variable name="u_8" index="607" value="20.00000"/>
  <variable name="u_9" index="608" value="36.00000"/>
  <variable name="u_10" index="609" value="36.00000"/>
  <variable name="u_11" index="610" value="26.00000"/>
  <variable name="u_12" index="611" value="35.00000"/>
  <variable name="u_13" index="612" value="8.00000"/>
  <variable name="u_14" index="613" value="33.00000"/>
  <variable name="u_15" index="614" value="25.00000"/>
  <variable name="u_16" index="615" value="28.00000"/>
  <variable name="u_17" index="616" value="36.00000"/>
  <variable name="u_18" index="617" value="29.00000"/>
  <variable name="u_19" index="618" value="36.00000"/>
  <variable name="u_20" index="619" value="36.00000"/>
  <variable name="u_21" index="620" value="18.00000"/>
  <variable name="u_22" index="621" value="36.00000"/>
  <variable name="u_23" index="622" value="17.00000"/>
  <variable name="u_24" index="623" value="29.00000"/>
 </variables>
</CPLEXSolution>
